number_of_interviews = 3;
number_of_students   = 37;
number_of_companies  = 15;

company_name = [ "AIMMS", "SAS", "Keelvar", "Microsoft", "Google", "IBM",
                 "Cadence", "Siemens", "Cosling", "COSYTEC", "LocalSolver",
                 "N-side", "UTRC-I", "Zoomer", "Quintiq" ];

disappointment_cost = [10,10,10,10,20,10,5,10,10,5,5,5,5,5,5];

min_assignment  = [5,5,3,10,10,10,5,10,10,3,3,3,3,5,5];

max_assignment  = [10,10,6,20,20,20,10,20,20,6,6,6,6,10,10];

preference   = [|3,4,1,1,1,1,2,2,2,4,4,2,2,3,2
                |2,4,4,1,1,3,1,1,1,2,1,1,1,5,1
                |3,4,3,5,5,5,3,3,4,3,4,4,3,3,3
                |5,2,3,1,1,1,4,4,2,4,4,4,2,3,2
                |2,2,1,5,2,3,4,4,5,4,2,2,3,5,5
                |3,4,3,2,2,1,3,3,4,4,4,2,3,3,3
                |4,3,4,2,2,2,3,4,3,3,3,2,3,4,3
                |5,5,2,1,1,1,5,5,3,5,5,5,5,2,5
                |5,5,5,1,1,1,5,5,5,5,5,5,5,5,5
                |5,3,5,1,1,1,5,5,3,5,5,2,5,3,5
                |4,2,4,4,2,2,3,4,2,3,3,4,3,2,3
                |5,5,5,3,3,3,3,5,3,5,5,5,5,5,5
                |5,5,5,1,1,3,5,5,5,5,5,5,5,5,5
                |4,4,4,4,2,2,3,4,4,4,4,4,3,3,4
                |2,2,2,1,1,1,2,2,2,2,1,2,2,2,2
                |5,5,5,5,5,5,5,5,5,5,5,5,5,5,5
                |5,5,5,5,4,4,5,5,3,5,4,5,5,3,4
                |2,2,4,5,5,5,2,2,5,2,1,3,3,2,2
                |2,3,1,3,2,2,4,1,2,1,2,1,1,2,4
                |5,4,3,3,3,3,5,5,4,5,3,4,5,3,5
                |5,5,5,2,1,2,5,5,3,3,5,5,5,5,5
                |4,2,3,3,2,4,4,3,4,5,4,4,4,3,4
                |3,3,3,2,1,2,5,3,5,3,2,3,1,5,4
                |3,4,3,4,4,4,3,3,4,3,3,4,4,5,3
                |2,2,2,3,4,2,5,2,2,4,4,1,1,2,4
                |2,3,2,5,1,1,5,5,4,2,2,5,4,2,4
                |3,3,4,1,1,2,3,4,2,3,3,2,3,2,4
                |2,2,2,1,1,2,1,3,3,2,1,1,1,1,2
                |5,4,1,5,3,5,5,5,5,5,5,5,5,1,5
                |5,2,5,1,1,1,5,5,2,5,2,3,5,3,5
                |2,5,5,3,3,1,5,5,5,5,5,2,5,5,1
                |5,5,5,5,5,5,5,5,5,5,5,5,5,5,5
                |4,1,2,2,1,1,3,2,1,3,3,1,4,2,3
                |1,3,2,1,2,4,3,2,5,5,4,3,5,4,1
                |3,2,2,5,4,2,3,2,5,3,1,2,3,4,2
                |5,1,3,2,3,4,3,5,1,4,5,5,5,3,3
                |1,3,3,3,4,4,1,5,3,2,2,1,2,1,2|];
